9
NAME: swiss42
TYPE: TSP
COMMENT: 42 Staedte Schweiz (Fricker)
DIMENSION: 42
EDGE_WEIGHT_TYPE: EXPLICIT
EDGE_WEIGHT_FORMAT: UPPER_ROW 
EDGE_WEIGHT_SECTION   
63 216 187 225 151 88 293 191 258 
196 347 201 205 288 243 192 113 
124 165 57 235 71 153 144  
176  66 71 71  82 176 
83 115 160 61 165 
105 127 201 78  
136 260 27   
106 110  
155 



EOF

 225 151 201 205
215 159  64 126 128 190  98  53  78 218  48 127 214
 61 155 157 235  47 305 243 186 282 261 300 252
105 100 176  66 253 183 146 231 203 239 204  